NAME          M
ROWS
 N   O0
 L   C0
 L   C1
 L   C2
 L   C3
 L   C4
 L   C5
 L   C6
 L   C7
 L   C8
 L   C9
 L   C10
 L   C11
 L   C12
 L   C13
 L   C14
 L   C15
 L   C16
 L   C17
 L   C18
 L   C19
 L   C20
 L   C21
 L   C22
 L   C23
 L   C24
 L   C25
 L   C26
 L   C27
 L   C28
 E   C29
 E   C30
 E   C31
 E   C32
 E   C33
 E   C34
 E   C35
 E   C36
 E   C37
 E   C38
 E   C39
 E   C40
 E   C41
 E   C42
 E   C43
 E   C44
 E   C45
 E   C46
 E   C47
 E   C48
 E   C49
 E   C50
 E   C51
 E   C52
 E   C53
 E   C54
 E   C55
 E   C56
 E   C57
 E   C58
 E   C59
 E   C60
 E   C61
 E   C62
 E   C63
 E   C64
 E   C65
 E   C66
 E   C67
 E   C68
 E   C69
 E   C70
 E   C71
 E   C72
 E   C73
 E   C74
 E   C75
 E   C76
 E   C77
 E   C78
 E   C79
 E   C80
 E   C81
 E   C82
COLUMNS
    V0        C29       1.0
    V0        C0        